NAME: tsp_371
COMMENT: Random TSP instance
TYPE: TSP
DIMENSION: 50
EDGE_WEIGHT_TYPE: EUC_2D
NODE_COORD_SECTION
1 904 170
2 306 489
3 849 932
4 675 935
5 98 541
6 102 570
7 954 952
8 40 42
9 232 687
10 971 745
11 352 987
12 828 865
13 673 634
14 297 733
15 360 158
16 709 510
17 740 862
18 932 131
19 945 732
20 780 406
21 461 808
22 238 52
23 970 279
24 991 996
25 416 546
26 631 408
27 333 401
28 875 506
29 257 28
30 587 543
31 264 581
32 540 775
33 561 77
34 909 150
35 957 435
36 383 576
37 233 304
38 533 855
39 49 139
40 832 747
41 784 415
42 285 314
43 687 323
44 25 273
45 640 467
46 61 801
47 950 69
48 400 72
49 616 644
50 992 801
